Route #1: 4 92 182 57 133 147 40 16 98 119 161 72 22 129 41 195 194 107 81 55 158 154 
Route #2: 28 6 132 14 47 3 43 136 131 102 196 184 27 51 148 116 95 83 44 90 103 200 39 79 49 153 
Route #3: 48 24 156 15 179 7 68 80 167 190 61 198 111 145 91 126 183 18 110 178 36 124 180 
Route #4: 100 37 139 59 143 188 29 21 166 82 
Route #5: 140 54 155 144 115 121 11 123 75 134 30 64 67 
Route #6: 142 152 169 70 106 31 85 177 65 128 168 99 94 151 160 108 38 32 23 117 45 56 50 112 109 189 125 165 86 114 52 74 101 53 192 157 33 173 12 9 66 89 
Route #7: 150 163 171 78 162 63 149 120 42 172 197 5 62 122 35 164 104 25 170 19 10 77 26 20 159 46 138 186 135 73 93 146 193 181 141 185 2 34 175 
Route #8: 174 97 84 199 127 105 69 176 113 58 191 17 87 88 71 137 118 13 8 60 1 76 96 130 
Route #9: 187 
Cost 2227.7
